unsat
(:arith-conflicts     1
 :arith-lower         9
 :arith-make-feasible 1
 :arith-max-columns   39
 :arith-max-rows      15
 :arith-upper         26
 :conflicts           1
 :max-memory          18.97
 :memory              18.31
 :mk-bool-var         35
 :num-allocs          138837
 :num-checks          1
 :rlimit-count        3197
 :time                0.00
 :total-time          0.02)
